NAME 
ROWS
 N  OBJ
 L  R0      
 E  R1      
 E  R2      
 E  R3      
 E  R4      
 E  R5      
 E  R6      
 E  R7      
 E  R8      
 E  R9      
 E  R10     
 E  R11     
 E  R12     
 E  R13     
 E  R14     
 E  R15     
 E  R16     
 E  R17     
 E  R18     
 E  R19     
 E  R20     
COLUMNS
    MARKER    'MARKER'                 'INTORG'
    I0(6)     OBJ       -87
    I0(6)     R0        38
    I0(6)     R3        6
    I0(6)     R5        5
    I0(6)     R6        8
    I0(6)     R7        14
    I0(6)     R20       1
    I1(7)     OBJ       -172
    I1(7)     R0        -126
    I1(7)     R1        16
    I1(7)     R2        4
    I1(7)     R4        13
    I1(7)     R5        12
    I1(7)     R8        -1
    I1(7)     R20       1
    I2(8)     OBJ       -144
    I2(8)     R0        -27
    I2(8)     R1        2
    I2(8)     R3        18
    I2(8)     R4        4
    I2(8)     R5        18
    I2(8)     R6        7
    I2(8)     R7        -1
    I2(8)     R20       1
    I3(6)     OBJ       93
    I3(6)     R0        -136
    I3(6)     R3        19
    I3(6)     R4        19
    I3(6)     R6        7
    I3(6)     R8        13
    I3(6)     R20       1
    I4(5)     OBJ       74
    I4(5)     R0        71
    I4(5)     R2        17
    I4(5)     R3        18
    I4(5)     R4        4
    I4(5)     R20       1
    I5(8)     OBJ       -69
    I5(8)     R0        -151
    I5(8)     R1        15
    I5(8)     R2        4
    I5(8)     R4        7
    I5(8)     R5        -1
    I5(8)     R6        15
    I5(8)     R8        17
    I5(8)     R20       1
    I6(5)     OBJ       101
    I6(5)     R0        -168
    I6(5)     R5        3
    I6(5)     R6        10
    I6(5)     R7        9
    I6(5)     R20       1
    I7(6)     OBJ       22
    I7(6)     R0        16
    I7(6)     R1        18
    I7(6)     R4        9
    I7(6)     R7        4
    I7(6)     R8        14
    I7(6)     R20       1
    MARKER    'MARKER'                 'INTEND'
    C8(12)    OBJ       6
    C8(12)    R1        12
    C8(12)    R4        4
    C8(12)    R7        19
    C8(12)    R8        6
    C8(12)    R10       16
    C8(12)    R11       14
    C8(12)    R12       16
    C8(12)    R14       19
    C8(12)    R15       5
    C8(12)    R16       10
    C8(12)    R17       2
    C8(12)    R18       9
    C9(12)    OBJ       -10
    C9(12)    R0        9
    C9(12)    R1        11
    C9(12)    R2        8
    C9(12)    R3        8
    C9(12)    R4        14
    C9(12)    R6        2
    C9(12)    R7        10
    C9(12)    R8        5
    C9(12)    R13       12
    C9(12)    R15       14
    C9(12)    R16       1
    C9(12)    R17       8
    C10(9)    OBJ       6
    C10(9)    R0        -3
    C10(9)    R2        1
    C10(9)    R6        19
    C10(9)    R8        13
    C10(9)    R9        7
    C10(9)    R10       3
    C10(9)    R13       -1
    C10(9)    R17       8
    C10(9)    R18       6
    C11(14)   OBJ       -1
    C11(14)   R0        -5
    C11(14)   R3        9
    C11(14)   R4        14
    C11(14)   R5        12
    C11(14)   R6        8
    C11(14)   R7        12
    C11(14)   R8        19
    C11(14)   R11       -1
    C11(14)   R12       11
    C11(14)   R13       13
    C11(14)   R15       14
    C11(14)   R16       17
    C11(14)   R17       12
    C11(14)   R18       17
    C12(10)   OBJ       -6
    C12(10)   R0        9
    C12(10)   R2        15
    C12(10)   R3        14
    C12(10)   R10       11
    C12(10)   R11       2
    C12(10)   R12       15
    C12(10)   R14       -1
    C12(10)   R15       3
    C12(10)   R16       1
    C12(10)   R17       4
    C13(10)   OBJ       -10
    C13(10)   R0        -3
    C13(10)   R3        7
    C13(10)   R4        13
    C13(10)   R5        6
    C13(10)   R6        11
    C13(10)   R7        12
    C13(10)   R9        -1
    C13(10)   R10       7
    C13(10)   R12       18
    C13(10)   R13       16
    C14(10)   OBJ       6
    C14(10)   R0        -6
    C14(10)   R1        8
    C14(10)   R2        11
    C14(10)   R6        5
    C14(10)   R9        10
    C14(10)   R10       4
    C14(10)   R12       2
    C14(10)   R13       7
    C14(10)   R15       10
    C14(10)   R17       12
    C15(13)   OBJ       -3
    C15(13)   R0        -10
    C15(13)   R1        4
    C15(13)   R3        17
    C15(13)   R6        16
    C15(13)   R7        11
    C15(13)   R8        10
    C15(13)   R9        14
    C15(13)   R11       1
    C15(13)   R12       15
    C15(13)   R15       14
    C15(13)   R17       14
    C15(13)   R18       9
    C15(13)   R19       -1
    C16(7)    R0        3
    C16(7)    R1        3
    C16(7)    R5        2
    C16(7)    R10       4
    C16(7)    R11       11
    C16(7)    R12       19
    C16(7)    R16       15
    C17(12)   OBJ       -5
    C17(12)   R0        -9
    C17(12)   R1        11
    C17(12)   R2        8
    C17(12)   R3        11
    C17(12)   R4        5
    C17(12)   R5        10
    C17(12)   R9        4
    C17(12)   R10       1
    C17(12)   R13       18
    C17(12)   R14       10
    C17(12)   R16       5
    C17(12)   R19       12
    C18(7)    OBJ       6
    C18(7)    R2        -1
    C18(7)    R5        8
    C18(7)    R8        8
    C18(7)    R10       5
    C18(7)    R16       5
    C18(7)    R17       18
    C18(7)    R19       10
    C19(11)   OBJ       9
    C19(11)   R0        -2
    C19(11)   R3        -1
    C19(11)   R6        8
    C19(11)   R8        2
    C19(11)   R9        14
    C19(11)   R11       17
    C19(11)   R12       9
    C19(11)   R13       15
    C19(11)   R15       4
    C19(11)   R16       13
    C19(11)   R18       17
    C20(1)    R1        1
    C21(1)    R2        1
    C22(1)    R3        1
    C23(1)    R4        1
    C24(1)    R5        1
    C25(1)    R6        1
    C26(1)    R7        1
    C27(1)    R8        1
    C28(1)    R9        1
    C29(1)    R10       1
    C30(1)    R11       1
    C31(1)    R12       1
    C32(1)    R13       1
    C33(1)    R14       1
    C34(1)    R15       1
    C35(1)    R16       1
    C36(1)    R17       1
    C37(1)    R18       1
    C38(1)    R19       1
    C39(1)    R20       1
RHS
    RHS1      R0        -1.3595454545454558e+02
    RHS1      R1        95
    RHS1      R2        70
    RHS1      R3        56
    RHS1      R4        96
    RHS1      R5        91
    RHS1      R6        57
    RHS1      R7        67
    RHS1      R8        78
    RHS1      R9        66
    RHS1      R10       71
    RHS1      R11       62
    RHS1      R12       98
    RHS1      R13       70
    RHS1      R14       77
    RHS1      R15       59
    RHS1      R16       53
    RHS1      R17       91
    RHS1      R18       73
    RHS1      R19       98
    RHS1      R20       2
BOUNDS
 UP BND1      I0(6)     1
 UP BND1      I1(7)     1
 UP BND1      I2(8)     1
 UP BND1      I3(6)     1
 UP BND1      I4(5)     1
 UP BND1      I5(8)     1
 UP BND1      I6(5)     1
 UP BND1      I7(6)     1
ENDATA
